Traveling Salesman Problem/TSP_generados/Aleatorio1620390979_11.tsp
NAME: Aleatorio1620390979_11.tsp
COMMENT: Randomly generated scenario
TYPE: TSP
DIMENSION: 11
EDGE_WEIGHT_TYPE: ATT
NODE_COORD_SECTION
1 25.52 28.28
2 48.79 24.75
3 43.86 1.06
4 20.21 23.82
5 28.3 25.76
6 25.0 25.22
7 14.54 35.51
8 21.52 16.51
9 11.04 22.13
10 6.71 47.54
11 29.98 7.65
