Traveling Salesman Problem/TSP_generados/Aleatorio1620390979_11.opt.tour
NAME: Aleatorio1620390979_11.opt.tour
COMMENT: Optimal solution for Aleatorio1620390979_11 (148.80302540086117)
TYPE: TOUR
DIMENSION: 11
TOUR_SECTION
1 7 10 9 4 8 11 3 2 5 6
-1
EOF
